(set-logic QF_S)
(declare-fun var0 () String)
(declare-fun var1 () Int)
(declare-fun var2 () Int)
(declare-fun var3 () String)
(declare-fun var4 () String)
(declare-fun var5 () String)
(declare-fun var6 () Int)
(assert (str.prefixof (str.at var0 var1) (str.at ";7*,ijH!" var2)))
(assert (> (str.len var3) (str.to.int var4)))
(assert (str.in.re (str.substr var5 var6 var6) (re.+ re.allchar)))
(assert (str.contains var3 var3))
(check-sat)